1
0 0
1 1
149
150
0 1
1 2
148
149
0 2
1 3
147
148
0 3
1 4
146
147
0 4
1 5
145
146
0 5
1 6
144
145
0 6
1 7
143
144
0 7
1 8
142
143
0 8
1 9
141
142
0 9
1 10
140
141
0 10
1 11
139
140
0 11
1 12
138
139
0 12
1 13
137
138
0 13
1 14
136
137
0 14
1 15
135
136
0 15
1 16
134
135
0 16
1 17
133
134
0 17
1 18
132
133
0 18
1 19
131
132
0 19
1 20
130
131
0 20
1 21
129
130
0 21
1 22
128
129
0 22
1 23
127
128
0 23
1 24
126
127
0 24
1 25
125
126
0 25
1 26
124
125
0 26
1 27
123
124
0 27
1 28
122
123
0 28
1 29
121
122
0 29
1 30
120
121
0 30
1 31
119
120
0 31
1 32
118
119
0 32
1 33
117
118
0 33
1 34
116
117
0 34
1 35
115
116
0 35
1 36
114
115
0 36
1 37
113
114
0 37
1 38
112
113
0 38
1 39
111
112
0 39
1 40
110
111
0 40
1 41
109
110
0 41
1 42
108
109
0 42
1 43
107
108
0 43
1 44
106
107
0 44
1 45
105
106
0 45
1 46
104
105
0 46
1 47
103
104
0 47
1 48
102
103
0 48
1 49
101
102
0 49
1 50
100
101
0 50
1 51
99
100
0 51
1 52
98
99
0 52
1 53
97
98
0 53
1 54
96
97
0 54
1 55
95
96
0 55
1 56
94
95
0 56
1 57
93
94
0 57
1 58
92
93
0 58
1 59
91
92
0 59
1 60
90
91
0 60
1 61
89
90
0 61
1 62
88
89
0 62
1 63
87
88
0 63
1 64
86
87
0 64
1 65
85
86
0 65
1 66
84
85
0 66
1 67
83
84
0 67
1 68
82
83
0 68
1 69
81
82
0 69
1 70
80
81
0 70
1 71
79
80
0 71
1 72
78
79
0 72
1 73
77
78
0 73
1 74
76
77
0 74
1 75
75
76
0 75
1 76
74
75
0 76
1 77
73
74
0 77
1 78
72
73
0 78
1 79
71
72
0 79
1 80
70
71
0 80
1 81
69
70
0 81
1 82
68
69
0 82
1 83
67
68
0 83
1 84
66
67
0 84
1 85
65
66
0 85
1 86
64
65
0 86
1 87
63
64
0 87
1 88
62
63
0 88
1 89
61
62
0 89
1 90
60
61
0 90
1 91
59
60
0 91
1 92
58
59
0 92
1 93
57
58
0 93
1 94
56
57
0 94
1 95
55
56
0 95
1 96
54
55
0 96
1 97
53
54
0 97
1 98
52
53
0 98
1 99
51
52
0 99
1 100
50
51
0 100
1 101
49
50
0 101
1 102
48
49
0 102
1 103
47
48
0 103
1 104
46
47
0 104
1 105
45
46
0 105
1 106
44
45
0 106
1 107
43
44
0 107
1 108
42
43
0 108
1 109
41
42
0 109
1 110
40
41
0 110
1 111
39
40
0 111
1 112
38
39
0 112
1 113
37
38
0 113
1 114
36
37
0 114
1 115
35
36
0 115
1 116
34
35
0 116
1 117
33
34
0 117
1 118
32
33
0 118
1 119
31
32
0 119
1 120
30
31
0 120
1 121
29
30
0 121
1 122
28
29
0 122
1 123
27
28
0 123
1 124
26
27
0 124
1 125
25
26
0 125
1 126
24
25
0 126
1 127
23
24
0 127
1 128
22
23
0 128
1 129
21
22
0 129
1 130
20
21
0 130
1 131
19
20
0 131
1 132
18
19
0 132
1 133
17
18
0 133
1 134
16
17
0 134
1 135
15
16
0 135
1 136
14
15
0 136
1 137
13
14
0 137
1 138
12
13
0 138
1 139
11
12
0 139
1 140
10
11
0 140
1 141
9
10
0 141
1 142
8
9
0 142
1 143
7
8
0 143
1 144
6
7
0 144
1 145
5
6
0 145
1 146
4
5
0 146
1 147
3
4
0 147
1 148
2
3
0 148
1 149
1
2
0 149
1 150
0
1
